201	127
201.1	127
201.2	127
201.3	127.01
201.4	127.02
201.5	127.03
201.6	127.05
201.7	127.08
201.8	127.11
201.9	127.16
202	127.21
202.1	127.27
202.2	127.35
202.3	127.43
202.4	127.52
202.5	127.62
202.6	127.73
202.7	127.86
202.8	127.99
202.9	128.13
203	128.28
203.1	128.44
203.2	128.61
203.3	128.78
203.4	128.97
203.5	129.16
203.6	129.36
203.7	129.57
203.8	129.78
203.9	130
204	130.22
204.1	130.45
204.2	130.69
204.3	130.92
204.4	131.17
204.5	131.41
204.6	131.66
204.7	131.91
204.8	132.16
204.9	132.41
205	132.67
205.1	132.92
205.2	133.18
205.3	133.43
205.4	133.69
205.5	133.94
205.6	134.2
205.7	134.45
205.8	134.7
205.9	134.95
206	135.2
206.1	135.45
206.2	135.69
206.3	135.94
206.4	136.18
206.5	136.42
206.6	136.65
206.7	136.89
206.8	137.12
206.9	137.34
207	137.57
207.1	137.79
207.2	138.01
207.3	138.23
207.4	138.44
207.5	138.65
207.6	138.86
207.7	139.07
207.8	139.27
207.9	139.48
208	139.67
208.1	139.87
208.2	140.07
208.3	140.26
208.4	140.45
208.5	140.64
208.6	140.82
208.7	141.01
208.8	141.19
208.9	141.37
209	141.55
209.1	141.73
209.2	141.91
209.3	142.08
209.4	142.26
209.5	142.43
209.6	142.6
209.7	142.77
209.8	142.94
209.9	143.12
210	143.28
210.1	143.45
210.2	143.62
210.3	143.79
210.4	143.96
210.5	144.13
210.6	144.29
210.7	144.46
210.8	144.63
210.9	144.8
211	144.96
211.1	145.13
211.2	145.3
211.3	145.47
211.4	145.64
211.5	145.8
211.6	145.97
211.7	146.14
211.8	146.31
211.9	146.48
212	146.65
212.1	146.82
212.2	146.99
212.3	147.16
212.4	147.33
212.5	147.51
212.6	147.68
212.7	147.85
212.8	148.02
212.9	148.2
213	148.37
213.1	148.55
213.2	148.72
213.3	148.9
213.4	149.07
213.5	149.25
213.6	149.42
213.7	149.6
213.8	149.78
213.9	149.95
214	150.13
214.1	150.31
214.2	150.49
214.3	150.67
214.4	150.84
214.5	151.02
214.6	151.2
214.7	151.38
214.8	151.56
214.9	151.74
215	151.92
215.1	152.1
215.2	152.28
215.3	152.46
215.4	152.64
215.5	152.82
215.6	153
215.7	153.18
215.8	153.36
215.9	153.54
216	153.72
216.1	153.9
216.2	154.08
216.3	154.26
216.4	154.44
216.5	154.62
216.6	154.8
216.7	154.98
216.8	155.16
216.9	155.34
217	155.52
217.1	155.7
217.2	155.88
217.3	156.06
217.4	156.24
217.5	156.42
217.6	156.6
217.7	156.77
217.8	156.95
217.9	157.13
218	157.31
218.1	157.49
218.2	157.67
218.3	157.85
218.4	158.03
218.5	158.21
218.6	158.39
218.7	158.57
218.8	158.74
218.9	158.92
219	159.1
219.1	159.28
219.2	159.46
219.3	159.64
219.4	159.82
219.5	159.99
219.6	160.17
219.7	160.35
219.8	160.53
219.9	160.71
220	160.89
220.1	161.06
220.2	161.24
220.3	161.42
220.4	161.6
220.5	161.78
220.6	161.95
220.7	162.13
220.8	162.31
220.9	162.49
221	162.67
221.1	162.84
221.2	163.02
221.3	163.2
221.4	163.38
221.5	163.56
221.6	163.73
221.7	163.91
221.8	164.09
221.9	164.27
222	164.45
222.1	164.62
222.2	164.8
222.3	164.98
222.4	165.16
222.5	165.34
222.6	165.51
222.7	165.69
222.8	165.87
222.9	166.05
223	166.23
223.1	166.4
223.2	166.58
223.3	166.76
223.4	166.94
223.5	167.12
223.6	167.3
223.7	167.47
223.8	167.65
223.9	167.83
224	168.01
224.1	168.19
224.2	168.36
224.3	168.54
224.4	168.72
224.5	168.9
224.6	169.08
224.7	169.26
224.8	169.43
224.9	169.61
225	169.79
225.1	169.97
225.2	170.15
225.3	170.33
225.4	170.5
225.5	170.68
225.6	170.86
225.7	171.04
225.8	171.22
225.9	171.4
226	171.57
226.1	171.75
226.2	171.93
226.3	172.11
226.4	172.29
226.5	172.47
226.6	172.64
226.7	172.82
226.8	173
226.9	173.18
227	173.36
227.1	173.54
227.2	173.71
227.3	173.89
227.4	174.07
227.5	174.25
227.6	174.43
227.7	174.61
227.8	174.78
227.9	174.96
228	175.14
228.1	175.32
228.2	175.5
228.3	175.68
228.4	175.85
228.5	176.03
228.6	176.21
228.7	176.39
228.8	176.57
228.9	176.75
229	176.92
229.1	177.1
229.2	177.28
229.3	177.46
229.4	177.64
229.5	177.82
229.6	177.99
229.7	178.17
229.8	178.35
229.9	178.53
230	178.71
230.1	178.89
230.2	179.06
230.3	179.24
230.4	179.42
230.5	179.6
230.6	179.78
230.7	179.96
230.8	180.13
230.9	180.31
231	180.49
231.1	180.67
231.2	180.85
231.3	181.03
231.4	181.2
231.5	181.38
231.6	181.56
231.7	181.74
231.8	181.92
231.9	182.1
232	182.27
232.1	182.45
232.2	182.63
232.3	182.81
232.4	182.99
232.5	183.17
232.6	183.34
232.7	183.52
232.8	183.7
232.9	183.88
233	184.06
233.1	184.23
233.2	184.41
233.3	184.59
233.4	184.77
233.5	184.95
233.6	185.13
233.7	185.3
233.8	185.48
233.9	185.66
234	185.84
234.1	186.02
234.2	186.2
234.3	186.37
234.4	186.55
234.5	186.73
234.6	186.91
234.7	187.09
234.8	187.27
234.9	187.44
235	187.62
235.1	187.8
235.2	187.98
235.3	188.16
235.4	188.34
235.5	188.51
235.6	188.69
235.7	188.87
235.8	189.05
235.9	189.23
236	189.41
236.1	189.58
236.2	189.76
236.3	189.94
236.4	190.12
236.5	190.3
236.6	190.48
236.7	190.65
236.8	190.83
236.9	191.01
237	191.19
237.1	191.37
237.2	191.55
237.3	191.72
237.4	191.9
237.5	192.08
237.6	192.26
237.7	192.44
237.8	192.62
237.9	192.79
238	192.97
238.1	193.15
238.2	193.33
238.3	193.51
238.4	193.68
238.5	193.86
238.6	194.04
238.7	194.22
238.8	194.4
238.9	194.58
239	194.75
239.1	194.93
239.2	195.11
239.3	195.29
239.4	195.47
239.5	195.65
239.6	195.82
239.7	196
239.8	196.18
239.9	196.36
240	196.54
240.1	196.72
240.2	196.89
240.3	197.07
240.4	197.25
240.5	197.43
240.6	197.61
240.7	197.79
240.8	197.96
240.9	198.14
241	198.32
241.1	198.5
241.2	198.68
241.3	198.86
241.4	199.03
241.5	199.21
241.6	199.39
241.7	199.57
241.8	199.75
241.9	199.93
242	200.1
242.1	200.28
242.2	200.46
242.3	200.64
242.4	200.82
242.5	201
242.6	201.17
242.7	201.35
242.8	201.53
242.9	201.71
243	201.89
243.1	202.07
243.2	202.24
243.3	202.42
243.4	202.6
243.5	202.78
243.6	202.96
243.7	203.13
243.8	203.31
243.9	203.49
244	203.67
244.1	203.85
244.2	204.03
244.3	204.2
244.4	204.38
244.5	204.56
244.6	204.74
244.7	204.92
244.8	205.1
244.9	205.27
245	205.45
245.1	205.63
245.2	205.81
245.3	205.99
245.4	206.17
245.5	206.34
245.6	206.52
245.7	206.7
245.8	206.88
245.9	207.06
246	207.24
246.1	207.41
246.2	207.59
246.3	207.77
246.4	207.95
246.5	208.13
246.6	208.31
246.7	208.48
246.8	208.66
246.9	208.84
247	209.02
247.1	209.2
247.2	209.38
247.3	209.55
247.4	209.73
247.5	209.91
247.6	210.09
247.7	210.27
247.8	210.45
247.9	210.62
248	210.8
248.1	210.98
248.2	211.16
248.3	211.34
248.4	211.52
248.5	211.69
248.6	211.87
248.7	212.05
248.8	212.23
248.9	212.41
249	212.58
249.1	212.76
249.2	212.94
249.3	213.12
249.4	213.3
249.5	213.48
249.6	213.65
249.7	213.83
249.8	214.01
249.9	214.19
250	214.37
250.1	214.55
250.2	214.72
250.3	214.9
250.4	215.08
250.5	215.26
250.6	215.44
250.7	215.62
250.8	215.79
250.9	215.97
251	216.15
251.1	216.33
251.2	216.51
251.3	216.69
251.4	216.86
251.5	217.04
251.6	217.22
251.7	217.4
251.8	217.58
251.9	217.76
252	217.93
252.1	218.11
252.2	218.29
252.3	218.47
252.4	218.65
252.5	218.83
252.6	219
252.7	219.18
252.8	219.36
252.9	219.54
253	219.72
253.1	219.9
253.2	220.07
253.3	220.25
253.4	220.43
253.5	220.61
253.6	220.79
253.7	220.97
253.8	221.14
253.9	221.32
254	221.5
254.1	221.68
254.2	221.86
254.3	222.03
254.4	222.21
254.5	222.39
254.6	222.57
254.7	222.75
254.8	222.93
254.9	223.1
255	223.28
255.1	223.46
255.2	223.64
255.3	223.82
255.4	224
255.5	224.17
255.6	224.35
255.7	224.53
255.8	224.71
255.9	224.89
256	225.07
256.1	225.24
256.2	225.42
256.3	225.6
256.4	225.78
256.5	225.96
256.6	226.14
256.7	226.31
256.8	226.49
256.9	226.67
257	226.85
257.1	227.03
257.2	227.21
257.3	227.38
257.4	227.56
257.5	227.74
257.6	227.92
257.7	228.1
257.8	228.28
257.9	228.45
258	228.63
258.1	228.81
258.2	228.99
258.3	229.17
258.4	229.35
258.5	229.52
258.6	229.7
258.7	229.88
258.8	230.06
258.9	230.24
259	230.42
259.1	230.59
259.2	230.77
259.3	230.95
259.4	231.13
259.5	231.31
259.6	231.48
259.7	231.66
259.8	231.84
259.9	232.02
260	232.2
260.1	232.38
260.2	232.55
260.3	232.73
260.4	232.91
260.5	233.09
260.6	233.27
260.7	233.45
260.8	233.62
260.9	233.8
261	233.98
261.1	234.16
261.2	234.34
261.3	234.52
261.4	234.69
261.5	234.87
261.6	235.05
261.7	235.23
261.8	235.41
261.9	235.59
262	235.76
262.1	235.94
262.2	236.12
262.3	236.3
262.4	236.48
262.5	236.66
262.6	236.83
262.7	237.01
262.8	237.19
262.9	237.37
263	237.55
263.1	237.73
263.2	237.9
263.3	238.08
263.4	238.26
263.5	238.44
263.6	238.62
263.7	238.8
263.8	238.97
263.9	239.15
264	239.33
264.1	239.51
264.2	239.69
264.3	239.87
264.4	240.04
264.5	240.22
264.6	240.4
264.7	240.58
264.8	240.76
264.9	240.93
265	241.11
265.1	241.29
265.2	241.47
265.3	241.65
265.4	241.83
265.5	242
265.6	242.18
265.7	242.36
265.8	242.54
265.9	242.72
266	242.9
266.1	243.07
266.2	243.25
266.3	243.43
266.4	243.61
266.5	243.79
266.6	243.97
266.7	244.14
266.8	244.32
266.9	244.5
267	244.68
267.1	244.86
267.2	245.04
267.3	245.21
267.4	245.39
267.5	245.57
267.6	245.75
267.7	245.93
267.8	246.11
267.9	246.28
268	246.46
268.1	246.64
268.2	246.82
268.3	247
268.4	247.18
268.5	247.35
268.6	247.53
268.7	247.71
268.8	247.89
268.9	248.07
269	248.25
269.1	248.42
269.2	248.6
269.3	248.78
269.4	248.96
269.5	249.14
269.6	249.32
269.7	249.49
269.8	249.67
269.9	249.85
270	250.03
270.1	250.21
270.2	250.38
270.3	250.56
270.4	250.74
270.5	250.92
270.6	251.1
270.7	251.28
270.8	251.45
270.9	251.63
271	251.81
271.1	251.99
271.2	252.17
271.3	252.35
271.4	252.52
271.5	252.7
271.6	252.88
271.7	253.06
271.8	253.24
271.9	253.42
272	253.59
272.1	253.77
272.2	253.95
272.3	254.13
272.4	254.31
272.5	254.49
272.6	254.66
272.7	254.84
272.8	255.02
272.9	255.2
273	255.38
273.1	255.56
273.2	255.73
273.3	255.91
273.4	256.09
273.5	256.27
273.6	256.45
273.7	256.63
273.8	256.8
273.9	256.98
274	257.16
274.1	257.34
274.2	257.52
274.3	257.7
274.4	257.87
274.5	258.05
274.6	258.23
274.7	258.41
274.8	258.59
274.9	258.77
275	258.94
275.1	259.12
275.2	259.3
275.3	259.48
275.4	259.66
275.5	259.83
275.6	260.01
275.7	260.19
275.8	260.37
275.9	260.55
276	260.73
276.1	260.9
276.2	261.08
276.3	261.26
276.4	261.44
276.5	261.62
276.6	261.8
276.7	261.97
276.8	262.15
276.9	262.33
277	262.51
277.1	262.69
277.2	262.87
277.3	263.04
277.4	263.22
277.5	263.4
277.6	263.58
277.7	263.76
277.8	263.94
277.9	264.11
278	264.29
278.1	264.47
278.2	264.65
278.3	264.83
278.4	265.01
278.5	265.18
278.6	265.36
278.7	265.54
278.8	265.72
278.9	265.9
279	266.08
279.1	266.25
279.2	266.43
279.3	266.61
279.4	266.79
279.5	266.97
279.6	267.15
279.7	267.32
279.8	267.5
279.9	267.68
280	267.86
280.1	268.04
280.2	268.22
280.3	268.39
280.4	268.57
280.5	268.75
280.6	268.93
280.7	269.11
280.8	269.28
280.9	269.46
281	269.64
281.1	269.82
281.2	270
281.3	270.18
281.4	270.35
281.5	270.53
281.6	270.71
281.7	270.89
281.8	271.07
281.9	271.25
282	271.42
282.1	271.6
282.2	271.78
282.3	271.96
282.4	272.14
282.5	272.32
282.6	272.49
282.7	272.67
282.8	272.85
282.9	273.03
283	273.21
283.1	273.39
283.2	273.56
283.3	273.74
283.4	273.92
283.5	274.1
283.6	274.28
283.7	274.46
283.8	274.63
283.9	274.81
284	274.99
284.1	275.17
284.2	275.35
284.3	275.53
284.4	275.7
284.5	275.88
284.6	276.06
284.7	276.24
284.8	276.42
284.9	276.6
285	276.77
285.1	276.95
285.2	277.13
285.3	277.31
285.4	277.49
285.5	277.67
285.6	277.84
285.7	278.02
285.8	278.2
285.9	278.38
286	278.56
286.1	278.73
286.2	278.91
286.3	279.09
286.4	279.27
286.5	279.45
286.6	279.63
286.7	279.8
286.8	279.98
286.9	280.16
287	280.34
287.1	280.52
287.2	280.7
287.3	280.87
287.4	281.05
287.5	281.23
287.6	281.41
287.7	281.59
287.8	281.77
287.9	281.94
288	282.12
288.1	282.3
288.2	282.48
288.3	282.66
288.4	282.84
288.5	283.01
288.6	283.19
288.7	283.37
288.8	283.55
288.9	283.73
289	283.91
289.1	284.08
289.2	284.26
289.3	284.44
289.4	284.62
289.5	284.8
289.6	284.98
289.7	285.15
289.8	285.33
289.9	285.51
290	285.69
290.1	285.87
290.2	286.05
290.3	286.22
290.4	286.4
290.5	286.58
290.6	286.76
290.7	286.94
290.8	287.11
290.9	287.29
291	287.47
291.1	287.65
291.2	287.83
291.3	288.01
291.4	288.18
291.5	288.36
291.6	288.54
291.7	288.72
291.8	288.9
291.9	289.08
292	289.25
292.1	289.43
292.2	289.61
292.3	289.79
292.4	289.97
292.5	290.15
292.6	290.32
292.7	290.5
292.8	290.68
292.9	290.86
293	291.04
293.1	291.21
293.2	291.39
293.3	291.57
293.4	291.75
293.5	291.93
293.6	292.11
293.7	292.28
293.8	292.46
293.9	292.64
294	292.82
294.1	293
294.2	293.18
294.3	293.35
294.4	293.53
294.5	293.71
294.6	293.89
294.7	294.07
294.8	294.25
294.9	294.42
295	294.6
295.1	294.78
295.2	294.96
295.3	295.14
295.4	295.32
295.5	295.5
295.6	295.67
295.7	295.85
295.8	296.03
295.9	296.21
296	296.39
296.1	296.57
296.2	296.74
296.3	296.92
296.4	297.1
296.5	297.28
296.6	297.46
296.7	297.64
296.8	297.82
296.9	297.99
297	298.17
297.1	298.35
297.2	298.53
297.3	298.71
297.4	298.89
297.5	299.07
297.6	299.24
297.7	299.42
297.8	299.6
297.9	299.78
298	299.96
298.1	300.14
298.2	300.32
298.3	300.49
298.4	300.67
298.5	300.85
298.6	301.03
298.7	301.21
298.8	301.39
298.9	301.56
299	301.74
299.1	301.92
299.2	302.1
299.3	302.28
299.4	302.46
299.5	302.63
299.6	302.81
299.7	302.99
299.8	303.17
299.9	303.35
300	303.52
300.1	303.7
300.2	303.88
300.3	304.06
300.4	304.24
300.5	304.41
300.6	304.59
300.7	304.77
300.8	304.95
300.9	305.12
301	305.3
301.1	305.48
301.2	305.66
301.3	305.83
301.4	306.01
301.5	306.19
301.6	306.36
301.7	306.54
301.8	306.72
301.9	306.9
302	307.07
302.1	307.25
302.2	307.43
302.3	307.6
302.4	307.78
302.5	307.96
302.6	308.13
302.7	308.31
302.8	308.49
302.9	308.66
303	308.84
303.1	309.02
303.2	309.2
303.3	309.37
303.4	309.55
303.5	309.73
303.6	309.9
303.7	310.08
303.8	310.26
303.9	310.44
304	310.62
304.1	310.79
304.2	310.97
304.3	311.15
304.4	311.33
304.5	311.51
304.6	311.69
304.7	311.87
304.8	312.05
304.9	312.23
305	312.41
305.1	312.59
305.2	312.77
305.3	312.95
305.4	313.14
305.5	313.32
305.6	313.5
305.7	313.68
305.8	313.87
305.9	314.05
306	314.24
306.1	314.42
306.2	314.61
306.3	314.8
306.4	314.98
306.5	315.17
306.6	315.36
306.7	315.55
306.8	315.74
306.9	315.93
307	316.12
307.1	316.31
307.2	316.5
307.3	316.69
307.4	316.88
307.5	317.08
307.6	317.27
307.7	317.47
307.8	317.66
307.9	317.86
308	318.05
308.1	318.25
308.2	318.45
308.3	318.64
308.4	318.84
308.5	319.04
308.6	319.24
308.7	319.44
308.8	319.64
308.9	319.84
309	320.04
309.1	320.24
309.2	320.44
309.3	320.64
309.4	320.84
309.5	321.04
309.6	321.25
309.7	321.45
309.8	321.65
309.9	321.86
310	322.06
310.1	322.26
310.2	322.47
310.3	322.67
310.4	322.87
310.5	323.08
310.6	323.28
310.7	323.49
310.8	323.69
310.9	323.89
311	324.1
311.1	324.3
311.2	324.51
311.3	324.71
311.4	324.92
311.5	325.12
311.6	325.33
311.7	325.53
311.8	325.73
311.9	325.94
312	326.14
312.1	326.35
312.2	326.55
312.3	326.76
312.4	326.96
312.5	327.17
312.6	327.37
312.7	327.57
312.8	327.78
312.9	327.98
313	328.19
313.1	328.39
313.2	328.59
313.3	328.8
313.4	329
313.5	329.21
313.6	329.41
313.7	329.61
313.8	329.82
313.9	330.02
314	330.22
314.1	330.43
314.2	330.63
314.3	330.83
314.4	331.04
314.5	331.24
314.6	331.44
314.7	331.65
314.8	331.85
314.9	332.05
315	332.26
315.1	332.46
315.2	332.66
315.3	332.87
315.4	333.07
315.5	333.27
315.6	333.48
315.7	333.68
315.8	333.88
315.9	334.08
316	334.29
316.1	334.49
316.2	334.69
316.3	334.9
316.4	335.1
316.5	335.3
316.6	335.5
316.7	335.71
316.8	335.91
316.9	336.11
317	336.32
317.1	336.52
317.2	336.72
317.3	336.92
317.4	337.13
317.5	337.33
317.6	337.53
317.7	337.74
317.8	337.94
317.9	338.14
318	338.34
318.1	338.55
318.2	338.75
318.3	338.95
318.4	339.16
318.5	339.36
318.6	339.56
318.7	339.77
318.8	339.97
318.9	340.17
319	340.37
319.1	340.58
319.2	340.78
319.3	340.98
319.4	341.19
319.5	341.39
319.6	341.59
319.7	341.8
319.8	342
319.9	342.2
320	342.41
320.1	342.61
320.2	342.81
320.3	343.01
320.4	343.22
320.5	343.42
320.6	343.62
320.7	343.83
320.8	344.03
320.9	344.23
321	344.44
321.1	344.64
321.2	344.84
321.3	345.05
321.4	345.25
321.5	345.45
321.6	345.66
321.7	345.86
321.8	346.06
321.9	346.26
322	346.47
322.1	346.67
322.2	346.87
322.3	347.08
322.4	347.28
322.5	347.48
322.6	347.69
322.7	347.89
322.8	348.09
322.9	348.3
323	348.5
323.1	348.7
323.2	348.91
323.3	349.11
323.4	349.31
323.5	349.52
323.6	349.72
323.7	349.92
323.8	350.12
323.9	350.33
324	350.53
324.1	350.73
324.2	350.94
324.3	351.14
324.4	351.34
324.5	351.55
324.6	351.75
324.7	351.95
324.8	352.16
324.9	352.36
325	352.56
325.1	352.77
325.2	352.97
325.3	353.17
325.4	353.38
325.5	353.58
325.6	353.78
325.7	353.98
325.8	354.19
325.9	354.39
326	354.59
326.1	354.8
326.2	355
326.3	355.2
326.4	355.41
326.5	355.61
326.6	355.81
326.7	356.02
326.8	356.22
326.9	356.42
327	356.63
327.1	356.83
327.2	357.03
327.3	357.23
327.4	357.44
327.5	357.64
327.6	357.84
327.7	358.05
327.8	358.25
327.9	358.45
328	358.66
328.1	358.86
328.2	359.06
328.3	359.27
328.4	359.47
328.5	359.67
328.6	359.88
328.7	360.08
328.8	360.28
328.9	360.48
329	360.69
329.1	360.89
329.2	361.09
329.3	361.3
329.4	361.5
329.5	361.7
329.6	361.91
329.7	362.11
329.8	362.31
329.9	362.52
330	362.72
330.1	362.92
330.2	363.12
330.3	363.33
330.4	363.53
330.5	363.73
330.6	363.94
330.7	364.14
330.8	364.34
330.9	364.55
331	364.75
331.1	364.95
331.2	365.16
331.3	365.36
331.4	365.56
331.5	365.77
331.6	365.97
331.7	366.17
331.8	366.37
331.9	366.58
332	366.78
332.1	366.98
332.2	367.19
332.3	367.39
332.4	367.59
332.5	367.8
332.6	368
332.7	368.2
332.8	368.41
332.9	368.61
333	368.81
333.1	369.02
333.2	369.22
333.3	369.42
333.4	369.62
333.5	369.83
333.6	370.03
333.7	370.23
333.8	370.44
333.9	370.64
334	370.84
334.1	371.05
334.2	371.25
334.3	371.45
334.4	371.66
334.5	371.86
334.6	372.06
334.7	372.27
334.8	372.47
334.9	372.67
335	372.88
335.1	373.08
335.2	373.28
335.3	373.48
335.4	373.69
335.5	373.89
335.6	374.09
335.7	374.3
335.8	374.5
335.9	374.7
336	374.91
336.1	375.11
336.2	375.31
336.3	375.52
336.4	375.72
336.5	375.92
336.6	376.13
336.7	376.33
336.8	376.53
336.9	376.73
337	376.94
337.1	377.14
337.2	377.34
337.3	377.55
337.4	377.75
337.5	377.95
337.6	378.16
337.7	378.36
337.8	378.56
337.9	378.77
338	378.97
338.1	379.17
338.2	379.38
338.3	379.58
338.4	379.78
338.5	379.98
338.6	380.19
338.7	380.39
338.8	380.59
338.9	380.8
339	381
